\ LP format - for model browsing. Use MPS format to capture full model detail.
Minimize
  zeta_sub_2
Subject To
 R0: zeta_sub_2 - 1.700697451e+09 y_2_0 - 3.04860823e+08 y_2_1
   - 1.63529949e+09 y_2_2 - 8.92139833e+08 y_2_3 - 7.15829928e+08 y_2_4
   - 8.55117794e+08 y_2_5 - 1.725493251e+09 y_2_6 - 1.44964712e+09 y_2_7
   - 2.49747959e+08 y_2_8 - 8.27444218e+08 y_2_9 - 1.318317772e+09 y_2_10
   - 1.390083335e+09 y_2_11 - 6.90978924e+08 y_2_12
   - 1.184609799e+09 y_2_13 - 2.24870827e+08 y_2_14 - 7.74163641e+08 y_2_15
   - 1.048844589e+09 y_2_16 - 1.3454151e+08 y_2_17 - 1.251919382e+09 y_2_18
   - 1.797535539e+09 y_2_19 - 8.905536e+08 y_2_20 - 6.34896327e+08 y_2_21
   - 3.69603683e+08 y_2_22 - 1.254217057e+09 y_2_23
   - 1.007786314e+09 y_2_24 - 7.8031117e+08 y_2_25 - 8.30519285e+08 y_2_26
   - 8.17897373e+08 y_2_27 - 6.75070303e+08 y_2_28 - 1.065163043e+09 y_2_29
   - 6.37128425e+08 y_2_30 - 5.8266782e+07 y_2_31 - 1.484455663e+09 y_2_32
   - 8.19583652e+08 y_2_33 - 1.321200434e+09 y_2_34
   - 1.432843753e+09 y_2_35 - 5.86384926e+08 y_2_36 - 5.59279989e+08 y_2_37
   - 8.2552811e+08 y_2_38 - 1.052960649e+09 y_2_39 - 1.446719304e+09 y_2_40
   - 1.96929579e+08 y_2_41 - 1.641471561e+09 y_2_42 - 4.50549846e+08 y_2_43
   - 1.512745173e+09 y_2_44 - 1.371517242e+09 y_2_45
   - 1.840143895e+09 y_2_46 - 1.694491038e+09 y_2_47 - 6.734504e+08 y_2_48
   - 5.27906676e+08 y_2_49 - 2.3126818e+08 y_2_50 - 1.795869034e+09 y_2_51
   - 7.69758998e+08 y_2_52 - 9.04903968e+08 y_2_53 - 1.587861337e+09 y_2_54
   - 4.1123593e+08 y_2_55 - 9.65156451e+08 y_2_56 - 1.794827329e+09 y_2_57
   - 9.82959139e+08 y_2_58 - 6.03024007e+08 y_2_59 - 1.383471387e+09 y_2_60
   - 2.7435227e+07 y_2_61 - 1.29444021e+09 y_2_62 - 3.52275848e+08 y_2_63
   - 1.264248064e+09 y_2_64 - 1.047271412e+09 y_2_65
   - 5.52307628e+08 y_2_66 - 1.675037565e+09 y_2_67 - 7.8486418e+08 y_2_68
   - 5.52612226e+08 y_2_69 - 2.6890191e+08 y_2_70 >= 0
 R1: y_2_29 + y_2_30 + y_2_31 + y_2_32 + y_2_33 + y_2_34 + y_2_35 + y_2_36
   + y_2_37 + y_2_38 = 1
 R2: y_2_53 + y_2_54 + y_2_55 + y_2_56 + y_2_57 + y_2_58 + y_2_59 + y_2_60
   = 0
 R3: - y_2_29 + y_2_39 + y_2_40 + y_2_41 + y_2_42 + y_2_43 + y_2_44
   + y_2_45 + y_2_46 + y_2_47 = 0
 R4: y_2_6 + y_2_7 + y_2_8 + y_2_9 + y_2_10 + y_2_11 + y_2_12 + y_2_13
   + y_2_14 - y_2_36 = 0
 R5: - y_2_6 + y_2_15 + y_2_16 + y_2_17 + y_2_18 + y_2_19 + y_2_20 - y_2_34
   - y_2_42 - y_2_59 = 0
 R6: - y_2_12 - y_2_30 - y_2_40 + y_2_48 + y_2_49 + y_2_50 + y_2_51
   + y_2_52 - y_2_56 = 0
 R7: y_2_0 + y_2_1 + y_2_2 + y_2_3 + y_2_4 - y_2_10 - y_2_38 - y_2_46
   - y_2_53 = 0
 R8: - y_2_33 - y_2_43 + y_2_63 + y_2_64 + y_2_65 = 0
 R9: - y_2_1 - y_2_17 - y_2_52 - y_2_57 + y_2_66 + y_2_67 + y_2_68 + y_2_69
   = 0
 R10: - y_2_4 - y_2_9 - y_2_15 + y_2_21 + y_2_22 + y_2_23 - y_2_37 - y_2_45
   - y_2_50 = 0
 R11: - y_2_3 - y_2_7 - y_2_21 + y_2_26 + y_2_27 - y_2_35 - y_2_48 - y_2_63
   - y_2_68 = 0
 R12: - y_2_13 - y_2_32 - y_2_39 - y_2_51 + y_2_61 + y_2_62 - y_2_65
   - y_2_66 = 0
 R13: - y_2_11 + y_2_24 + y_2_25 - y_2_54 = 0
 R14: - y_2_20 - y_2_22 - y_2_44 - y_2_60 - y_2_61 - y_2_64 - y_2_69
   + y_2_70 = 0
 R15: - y_2_2 - y_2_14 - y_2_18 - y_2_25 + y_2_28 - y_2_31 - y_2_41
   - y_2_58 - y_2_67 = 0
 R16: - y_2_0 + y_2_5 - y_2_16 - y_2_26 - y_2_47 - y_2_55 - y_2_62 = 0
 R17: - y_2_5 - y_2_8 - y_2_19 - y_2_23 - y_2_24 - y_2_27 - y_2_28 - y_2_49
   - y_2_70 = -1
Bounds
 y_2_0 <= 1
 y_2_1 <= 1
 y_2_2 <= 1
 y_2_3 <= 1
 y_2_4 <= 1
 y_2_5 <= 1
 y_2_6 <= 1
 y_2_7 <= 1
 y_2_8 <= 1
 y_2_9 <= 1
 y_2_10 <= 1
 y_2_11 <= 1
 y_2_12 <= 1
 y_2_13 <= 1
 y_2_14 <= 1
 y_2_15 <= 1
 y_2_16 <= 1
 y_2_17 <= 1
 y_2_18 <= 1
 y_2_19 <= 1
 y_2_20 <= 1
 y_2_21 <= 1
 y_2_22 <= 1
 y_2_23 <= 1
 y_2_24 <= 1
 y_2_25 <= 1
 y_2_26 <= 1
 y_2_27 <= 1
 y_2_28 <= 1
 y_2_29 <= 1
 y_2_30 <= 1
 y_2_31 <= 1
 y_2_32 <= 1
 y_2_33 <= 1
 y_2_34 <= 1
 y_2_35 <= 1
 y_2_36 <= 1
 y_2_37 <= 1
 y_2_38 <= 1
 y_2_39 <= 1
 y_2_40 <= 1
 y_2_41 <= 1
 y_2_42 <= 1
 y_2_43 <= 1
 y_2_44 <= 1
 y_2_45 <= 1
 y_2_46 <= 1
 y_2_47 <= 1
 y_2_48 <= 1
 y_2_49 <= 1
 y_2_50 <= 1
 y_2_51 <= 1
 y_2_52 <= 1
 y_2_53 <= 1
 y_2_54 <= 1
 y_2_55 <= 1
 y_2_56 <= 1
 y_2_57 <= 1
 y_2_58 <= 1
 y_2_59 <= 1
 y_2_60 <= 1
 y_2_61 <= 1
 y_2_62 <= 1
 y_2_63 <= 1
 y_2_64 <= 1
 y_2_65 <= 1
 y_2_66 <= 1
 y_2_67 <= 1
 y_2_68 <= 1
 y_2_69 <= 1
 y_2_70 <= 1
End
